\Problem name: 

Minimize
OBJROW: 0.05096 var(0) -0.00998 var(1) -0.04474 var(2) -0.13874 var(3) -0.11524 var(4) -0.07235 var(5) -0.06256 var(6) -0.05670 var(7) -0.06287 var(8) -0.01352 var(9)
 + 0.11555 var(10) + 0.07968 var(11) + 0.03252 var(12) + 0.13604 var(13) + 0.06771 var(14) + 0.03918 var(15) + 0.00824 var(16) -0.00302 var(17) -0.03536 var(18) -0.02306 var(19)
 + 0.08639 var(20) + 0.10354 var(21) + 0.05274 var(22) + 0.10573 var(23) + 0.09130 var(24) + 0.02303 var(25) + 0.01473 var(26) -0.02463 var(27) -0.03982 var(28) -0.02419 var(29)
 + 0.03349 var(30) + 0.00966 var(31) + 0.01397 var(32) + 0.00350 var(33) -0.01829 var(34) -0.01530 var(35) -0.02581 var(36) -0.03259 var(37) -0.02644 var(38) -0.00949 var(39)
 + 0.02631 var(40) + 0.01099 var(41) -0.00073 var(42) -0.02137 var(43) -0.05062 var(44) -0.06778 var(45) -0.04954 var(46) -0.04175 var(47) -0.03744 var(48) -0.01186 var(49)
 + 0.00791 var(50) + 0.01099 var(51) -0.00133 var(52) -0.03495 var(53) -0.05411 var(54) -0.04643 var(55) -0.04863 var(56) -0.03911 var(57) -0.03953 var(58) -0.01205 var(59)
 + 0.02935 var(60) + 0.01329 var(61) -0.00216 var(62) -0.05141 var(63) -0.05021 var(64) -0.05781 var(65) -0.05210 var(66) -0.04470 var(67) -0.04400 var(68) -0.01195 var(69)
 + 0.02644 var(70) + 0.00783 var(71) -0.00929 var(72) -0.03332 var(73) -0.05252 var(74) -0.06216 var(75) -0.03638 var(76) -0.04685 var(77) -0.03439 var(78) -0.01104 var(79)
 + 0.03800 var(80) + 0.01244 var(81) + 0.00323 var(82) -0.03494 var(83) -0.04443 var(84) -0.06277 var(85) -0.04653 var(86) -0.04357 var(87) -0.04158 var(88) -0.01198 var(89)
 -0.04124 var(90) -0.14156 var(91) -0.10044 var(92) -0.32043 var(93) -0.16930 var(94) -0.15515 var(95) -0.12621 var(96) -0.07738 var(97) -0.11569 var(98) -0.02222 var(99)
Subject To
constr(0):  var(0) + var(10) + var(20) + var(30) + var(40) + var(50) + var(60) + var(70) + var(80) + var(90)
 = 1
constr(1):  var(1) + var(11) + var(21) + var(31) + var(41) + var(51) + var(61) + var(71) + var(81) + var(91)
 = 1
constr(2):  var(2) + var(12) + var(22) + var(32) + var(42) + var(52) + var(62) + var(72) + var(82) + var(92)
 = 1
constr(3):  var(3) + var(13) + var(23) + var(33) + var(43) + var(53) + var(63) + var(73) + var(83) + var(93)
 = 1
constr(4):  var(4) + var(14) + var(24) + var(34) + var(44) + var(54) + var(64) + var(74) + var(84) + var(94)
 = 1
constr(5):  var(5) + var(15) + var(25) + var(35) + var(45) + var(55) + var(65) + var(75) + var(85) + var(95)
 = 1
constr(6):  var(6) + var(16) + var(26) + var(36) + var(46) + var(56) + var(66) + var(76) + var(86) + var(96)
 = 1
constr(7):  var(7) + var(17) + var(27) + var(37) + var(47) + var(57) + var(67) + var(77) + var(87) + var(97)
 = 1
constr(8):  var(8) + var(18) + var(28) + var(38) + var(48) + var(58) + var(68) + var(78) + var(88) + var(98)
 = 1
constr(9):  var(9) + var(19) + var(29) + var(39) + var(49) + var(59) + var(69) + var(79) + var(89) + var(99)
 = 1
Bounds
 0 <= var(0) <= 1
 0 <= var(1) <= 1
 0 <= var(2) <= 1
 0 <= var(3) <= 1
 0 <= var(4) <= 1
 0 <= var(5) <= 1
 0 <= var(6) <= 1
 0 <= var(7) <= 1
 0 <= var(8) <= 1
 0 <= var(9) <= 1
 0 <= var(10) <= 1
 0 <= var(11) <= 1
 0 <= var(12) <= 1
 0 <= var(13) <= 1
 0 <= var(14) <= 1
 0 <= var(15) <= 1
 0 <= var(16) <= 1
 0 <= var(17) <= 1
 0 <= var(18) <= 1
 0 <= var(19) <= 1
 0 <= var(20) <= 1
 0 <= var(21) <= 1
 0 <= var(22) <= 1
 0 <= var(23) <= 1
 0 <= var(24) <= 1
 0 <= var(25) <= 1
 0 <= var(26) <= 1
 0 <= var(27) <= 1
 0 <= var(28) <= 1
 0 <= var(29) <= 1
 0 <= var(30) <= 1
 0 <= var(31) <= 1
 0 <= var(32) <= 1
 0 <= var(33) <= 1
 0 <= var(34) <= 1
 0 <= var(35) <= 1
 0 <= var(36) <= 1
 0 <= var(37) <= 1
 0 <= var(38) <= 1
 0 <= var(39) <= 1
 0 <= var(40) <= 1
 0 <= var(41) <= 1
 0 <= var(42) <= 1
 0 <= var(43) <= 1
 0 <= var(44) <= 1
 0 <= var(45) <= 1
 0 <= var(46) <= 1
 0 <= var(47) <= 1
 0 <= var(48) <= 1
 0 <= var(49) <= 1
 0 <= var(50) <= 1
 0 <= var(51) <= 1
 0 <= var(52) <= 1
 0 <= var(53) <= 1
 0 <= var(54) <= 1
 0 <= var(55) <= 1
 0 <= var(56) <= 1
 0 <= var(57) <= 1
 0 <= var(58) <= 1
 0 <= var(59) <= 1
 0 <= var(60) <= 1
 0 <= var(61) <= 1
 0 <= var(62) <= 1
 0 <= var(63) <= 1
 0 <= var(64) <= 1
 0 <= var(65) <= 1
 0 <= var(66) <= 1
 0 <= var(67) <= 1
 0 <= var(68) <= 1
 0 <= var(69) <= 1
 0 <= var(70) <= 1
 0 <= var(71) <= 1
 0 <= var(72) <= 1
 0 <= var(73) <= 1
 0 <= var(74) <= 1
 0 <= var(75) <= 1
 0 <= var(76) <= 1
 0 <= var(77) <= 1
 0 <= var(78) <= 1
 0 <= var(79) <= 1
 0 <= var(80) <= 1
 0 <= var(81) <= 1
 0 <= var(82) <= 1
 0 <= var(83) <= 1
 0 <= var(84) <= 1
 0 <= var(85) <= 1
 0 <= var(86) <= 1
 0 <= var(87) <= 1
 0 <= var(88) <= 1
 0 <= var(89) <= 1
 0 <= var(90) <= 1
 0 <= var(91) <= 1
 0 <= var(92) <= 1
 0 <= var(93) <= 1
 0 <= var(94) <= 1
 0 <= var(95) <= 1
 0 <= var(96) <= 1
 0 <= var(97) <= 1
 0 <= var(98) <= 1
 0 <= var(99) <= 1
Integers
var(0) var(1) var(2) var(3) var(4) var(5) var(6) var(7) var(8) var(9) 
var(10) var(11) var(12) var(13) var(14) var(15) var(16) var(17) var(18) var(19) 
var(20) var(21) var(22) var(23) var(24) var(25) var(26) var(27) var(28) var(29) 
var(30) var(31) var(32) var(33) var(34) var(35) var(36) var(37) var(38) var(39) 
var(40) var(41) var(42) var(43) var(44) var(45) var(46) var(47) var(48) var(49) 
var(50) var(51) var(52) var(53) var(54) var(55) var(56) var(57) var(58) var(59) 
var(60) var(61) var(62) var(63) var(64) var(65) var(66) var(67) var(68) var(69) 
var(70) var(71) var(72) var(73) var(74) var(75) var(76) var(77) var(78) var(79) 
var(80) var(81) var(82) var(83) var(84) var(85) var(86) var(87) var(88) var(89) 
var(90) var(91) var(92) var(93) var(94) var(95) var(96) var(97) var(98) var(99) 
End
